532
-1 null 0 0.0 0.0 0.0
1 1 0 7810.0 6053.0 0.0
2 1 0 7798.0 5709.0 0.0
3 1 0 7264.0 5575.0 0.0
4 1 0 7324.0 5560.0 0.0
5 1 0 7547.0 5503.0 0.0
6 1 0 7744.0 5476.0 0.0
7 1 0 7821.0 5457.0 0.0
8 1 0 7883.0 5408.0 0.0
9 1 0 7874.0 5405.0 0.0
10 1 0 7927.0 5365.0 0.0
11 1 0 7848.0 5358.0 0.0
12 1 0 7802.0 5317.0 0.0
13 1 0 7962.0 5287.0 0.0
14 1 0 7913.0 5280.0 0.0
15 1 0 7724.0 5210.0 0.0
16 1 0 7503.0 5191.0 0.0
17 1 0 7759.0 5143.0 0.0
18 1 0 7890.0 5130.0 0.0
19 1 0 7254.0 5129.0 0.0
20 1 0 7790.0 5038.0 0.0
21 1 0 7142.0 5032.0 0.0
22 1 0 7606.0 5009.0 0.0
23 1 0 7772.0 4989.0 0.0
24 1 0 7744.0 4933.0 0.0
25 1 0 7846.0 4923.0 0.0
26 1 0 7622.0 4917.0 0.0
27 1 0 6937.0 4917.0 0.0
28 1 0 7576.0 4915.0 0.0
29 1 0 7783.0 4912.0 0.0
30 1 0 7716.0 4909.0 0.0
31 1 0 7295.0 4887.0 0.0
32 1 0 7777.0 4869.0 0.0
33 1 0 7700.0 4854.0 0.0
34 1 0 7726.0 4833.0 0.0
35 1 0 7702.0 4815.0 0.0
36 1 0 7583.0 4813.0 0.0
37 1 0 7654.0 4795.0 0.0
38 1 0 7417.0 4788.0 0.0
39 1 0 7267.0 4779.0 0.0
40 1 0 6806.0 4755.0 0.0
41 1 0 5259.0 4751.0 0.0
42 1 0 7698.0 4745.0 0.0
43 1 0 7570.0 4741.0 0.0
44 1 0 7617.0 4724.0 0.0
45 1 0 7752.0 4721.0 0.0
46 1 0 7673.0 4718.0 0.0
47 1 0 7692.0 4666.0 0.0
48 1 0 7547.0 4664.0 0.0
49 1 0 7259.0 4630.0 0.0
50 1 0 5387.0 4623.0 0.0
51 1 0 7679.0 4581.0 0.0
52 1 0 7674.0 4579.0 0.0
53 1 0 7631.0 4573.0 0.0
54 1 0 7520.0 4572.0 0.0
55 1 0 7848.0 4546.0 0.0
56 1 0 5685.0 4546.0 0.0
57 1 0 7832.0 4542.0 0.0
58 1 0 6735.0 4509.0 0.0
59 1 0 7647.0 4504.0 0.0
60 1 0 7338.0 4481.0 0.0
61 1 0 4602.0 4478.0 0.0
62 1 0 4606.0 4468.0 0.0
63 1 0 7399.0 4467.0 0.0
64 1 0 7037.0 4446.0 0.0
65 1 0 7458.0 4428.0 0.0
66 1 0 7364.0 4427.0 0.0
67 1 0 6058.0 4426.0 0.0
68 1 0 6868.0 4418.0 0.0
69 1 0 3832.0 4410.0 0.0
70 1 0 6670.0 4401.0 0.0
71 1 0 7443.0 4375.0 0.0
72 1 0 7160.0 4370.0 0.0
73 1 0 6139.0 4369.0 0.0
74 1 0 7333.0 4335.0 0.0
75 1 0 6237.0 4332.0 0.0
76 1 0 5385.0 4318.0 0.0
77 1 0 6911.0 4296.0 0.0
78 1 0 6304.0 4294.0 0.0
79 1 0 7111.0 4288.0 0.0
80 1 0 6740.0 4282.0 0.0
81 1 0 7698.0 4279.0 0.0
82 1 0 7613.0 4275.0 0.0
83 1 0 7360.0 4275.0 0.0
84 1 0 6779.0 4273.0 0.0
85 1 0 7207.0 4270.0 0.0
86 1 0 6241.0 4268.0 0.0
87 1 0 7432.0 4265.0 0.0
88 1 0 4354.0 4262.0 0.0
89 1 0 6589.0 4256.0 0.0
90 1 0 7817.0 4252.0 0.0
91 1 0 6051.0 4246.0 0.0
92 1 0 5356.0 4241.0 0.0
93 1 0 7554.0 4236.0 0.0
94 1 0 7534.0 4227.0 0.0
95 1 0 4217.0 4224.0 0.0
96 1 0 7349.0 4219.0 0.0
97 1 0 7128.0 4215.0 0.0
98 1 0 3950.0 4215.0 0.0
99 1 0 6947.0 4209.0 0.0
100 1 0 7549.0 4208.0 0.0
101 1 0 5168.0 4208.0 0.0
102 1 0 6524.0 4207.0 0.0
103 1 0 5871.0 4202.0 0.0
104 1 0 7542.0 4198.0 0.0
105 1 0 6660.0 4193.0 0.0
106 1 0 7216.0 4180.0 0.0
107 1 0 6607.0 4173.0 0.0
108 1 0 7601.0 4171.0 0.0
109 1 0 6123.0 4167.0 0.0
110 1 0 6450.0 4160.0 0.0
111 1 0 6713.0 4154.0 0.0
112 1 0 7355.0 4151.0 0.0
113 1 0 7604.0 4146.0 0.0
114 1 0 7541.0 4141.0 0.0
115 1 0 7506.0 4138.0 0.0
116 1 0 4871.0 4132.0 0.0
117 1 0 2906.0 4131.0 0.0
118 1 0 6488.0 4128.0 0.0
119 1 0 6312.0 4126.0 0.0
120 1 0 6008.0 4117.0 0.0
121 1 0 4427.0 4109.0 0.0
122 1 0 4679.0 4084.0 0.0
123 1 0 5955.0 4081.0 0.0
124 1 0 6891.0 4075.0 0.0
125 1 0 7705.0 4065.0 0.0
126 1 0 7562.0 4058.0 0.0
127 1 0 4634.0 4054.0 0.0
128 1 0 4607.0 4049.0 0.0
129 1 0 6557.0 4047.0 0.0
130 1 0 7344.0 4046.0 0.0
131 1 0 5543.0 4042.0 0.0
132 1 0 7124.0 4039.0 0.0
133 1 0 7466.0 4037.0 0.0
134 1 0 6259.0 4030.0 0.0
135 1 0 6366.0 4002.0 0.0
136 1 0 5597.0 3993.0 0.0
137 1 0 4655.0 3992.0 0.0
138 1 0 7805.0 3991.0 0.0
139 1 0 3396.0 3990.0 0.0
140 1 0 6603.0 3982.0 0.0
141 1 0 6537.0 3982.0 0.0
142 1 0 4342.0 3966.0 0.0
143 1 0 7037.0 3965.0 0.0
144 1 0 7345.0 3951.0 0.0
145 1 0 7271.0 3948.0 0.0
146 1 0 5336.0 3943.0 0.0
147 1 0 5964.0 3935.0 0.0
148 1 0 7660.0 3924.0 0.0
149 1 0 7872.0 3922.0 0.0
150 1 0 6567.0 3922.0 0.0
151 1 0 6602.0 3920.0 0.0
152 1 0 4806.0 3914.0 0.0
153 1 0 7909.0 3912.0 0.0
154 1 0 5926.0 3912.0 0.0
155 1 0 7449.0 3911.0 0.0
156 1 0 6333.0 3909.0 0.0
157 1 0 3108.0 3908.0 0.0
158 1 0 7844.0 3902.0 0.0
159 1 0 5427.0 3894.0 0.0
160 1 0 6862.0 3892.0 0.0
161 1 0 6621.0 3891.0 0.0
162 1 0 6150.0 3888.0 0.0
163 1 0 7388.0 3879.0 0.0
164 1 0 7351.0 3877.0 0.0
165 1 0 4694.0 3877.0 0.0
166 1 0 6340.0 3870.0 0.0
167 1 0 6425.0 3867.0 0.0
168 1 0 6577.0 3858.0 0.0
169 1 0 6864.0 3854.0 0.0
170 1 0 5706.0 3844.0 0.0
171 1 0 4496.0 3844.0 0.0
172 1 0 4574.0 3843.0 0.0
173 1 0 3824.0 3838.0 0.0
174 1 0 5803.0 3824.0 0.0
175 1 0 5720.0 3823.0 0.0
176 1 0 6454.0 3821.0 0.0
177 1 0 6120.0 3821.0 0.0
178 1 0 7988.0 3820.0 0.0
179 1 0 6376.0 3819.0 0.0
180 1 0 7841.0 3818.0 0.0
181 1 0 5778.0 3813.0 0.0
182 1 0 5457.0 3808.0 0.0
183 1 0 5671.0 3807.0 0.0
184 1 0 4293.0 3788.0 0.0
185 1 0 7423.0 3776.0 0.0
186 1 0 7342.0 3775.0 0.0
187 1 0 5541.0 3769.0 0.0
188 1 0 5621.0 3768.0 0.0
189 1 0 7750.0 3760.0 0.0
190 1 0 6327.0 3745.0 0.0
191 1 0 7879.0 3743.0 0.0
192 1 0 199.0 3743.0 0.0
193 1 0 6652.0 3742.0 0.0
194 1 0 5678.0 3742.0 0.0
195 1 0 5207.0 3742.0 0.0
196 1 0 7429.0 3737.0 0.0
197 1 0 7262.0 3725.0 0.0
198 1 0 6427.0 3717.0 0.0
199 1 0 1851.0 3710.0 0.0
200 1 0 6207.0 3700.0 0.0
201 1 0 6069.0 3695.0 0.0
202 1 0 4780.0 3694.0 0.0
203 1 0 7603.0 3690.0 0.0
204 1 0 5751.0 3681.0 0.0
205 1 0 6365.0 3679.0 0.0
206 1 0 6958.0 3678.0 0.0
207 1 0 6317.0 3673.0 0.0
208 1 0 5417.0 3673.0 0.0
209 1 0 6426.0 3656.0 0.0
210 1 0 7922.0 3655.0 0.0
211 1 0 7331.0 3634.0 0.0
212 1 0 5965.0 3624.0 0.0
213 1 0 4965.0 3622.0 0.0
214 1 0 6833.0 3618.0 0.0
215 1 0 6798.0 3610.0 0.0
216 1 0 7667.0 3608.0 0.0
217 1 0 1047.0 3602.0 0.0
218 1 0 7803.0 3598.0 0.0
219 1 0 7370.0 3588.0 0.0
220 1 0 952.0 3583.0 0.0
221 1 0 7906.0 3580.0 0.0
222 1 0 250.0 3578.0 0.0
223 1 0 5111.0 3569.0 0.0
224 1 0 6453.0 3567.0 0.0
225 1 0 7492.0 3560.0 0.0
226 1 0 6140.0 3558.0 0.0
227 1 0 5315.0 3557.0 0.0
228 1 0 5316.0 3554.0 0.0
229 1 0 4232.0 3551.0 0.0
230 1 0 7408.0 3534.0 0.0
231 1 0 8013.0 3523.0 0.0
232 1 0 5160.0 3517.0 0.0
233 1 0 7141.0 3514.0 0.0
234 1 0 5887.0 3508.0 0.0
235 1 0 4694.0 3502.0 0.0
236 1 0 7633.0 3499.0 0.0
237 1 0 7919.0 3496.0 0.0
238 1 0 1784.0 3494.0 0.0
239 1 0 1482.0 3494.0 0.0
240 1 0 236.0 3494.0 0.0
241 1 0 6713.0 3488.0 0.0
242 1 0 7696.0 3486.0 0.0
243 1 0 536.0 3481.0 0.0
244 1 0 317.0 3476.0 0.0
245 1 0 5649.0 3472.0 0.0
246 1 0 6235.0 3471.0 0.0
247 1 0 7199.0 3469.0 0.0
248 1 0 5540.0 3468.0 0.0
249 1 0 5400.0 3461.0 0.0
250 1 0 5796.0 3459.0 0.0
251 1 0 2342.0 3439.0 0.0
252 1 0 7494.0 3430.0 0.0
253 1 0 7321.0 3429.0 0.0
254 1 0 6265.0 3426.0 0.0
255 1 0 8001.0 3418.0 0.0
256 1 0 226.0 3415.0 0.0
257 1 0 6148.0 3413.0 0.0
258 1 0 5987.0 3402.0 0.0
259 1 0 7582.0 3396.0 0.0
260 1 0 7422.0 3390.0 0.0
261 1 0 6623.0 3389.0 0.0
262 1 0 7475.0 3388.0 0.0
263 1 0 7654.0 3377.0 0.0
264 1 0 7838.0 3375.0 0.0
265 1 0 6570.0 3371.0 0.0
266 1 0 4364.0 3362.0 0.0
267 1 0 7316.0 3360.0 0.0
268 1 0 4857.0 3359.0 0.0
269 1 0 7533.0 3358.0 0.0
270 1 0 5719.0 3352.0 0.0
271 1 0 7452.0 3339.0 0.0
272 1 0 7747.0 3329.0 0.0
273 1 0 5841.0 3328.0 0.0
274 1 0 3229.0 3312.0 0.0
275 1 0 7076.0 3302.0 0.0
276 1 0 7657.0 3301.0 0.0
277 1 0 6360.0 3301.0 0.0
278 1 0 525.0 3297.0 0.0
279 1 0 5619.0 3291.0 0.0
280 1 0 7989.0 3271.0 0.0
281 1 0 5697.0 3269.0 0.0
282 1 0 6050.0 3242.0 0.0
283 1 0 7082.0 3235.0 0.0
284 1 0 5539.0 3235.0 0.0
285 1 0 741.0 3235.0 0.0
286 1 0 6731.0 3234.0 0.0
287 1 0 7453.0 3229.0 0.0
288 1 0 7695.0 3220.0 0.0
289 1 0 7299.0 3219.0 0.0
290 1 0 863.0 3219.0 0.0
291 1 0 7861.0 3216.0 0.0
292 1 0 5960.0 3207.0 0.0
293 1 0 4252.0 3206.0 0.0
294 1 0 6402.0 3190.0 0.0
295 1 0 5342.0 3188.0 0.0
296 1 0 6656.0 3181.0 0.0
297 1 0 7532.0 3175.0 0.0
298 1 0 7434.0 3173.0 0.0
299 1 0 5679.0 3171.0 0.0
300 1 0 6518.0 3165.0 0.0
301 1 0 4537.0 3143.0 0.0
302 1 0 806.0 3123.0 0.0
303 1 0 6113.0 3101.0 0.0
304 1 0 7440.0 3100.0 0.0
305 1 0 6204.0 3099.0 0.0
306 1 0 7715.0 3086.0 0.0
307 1 0 7503.0 3086.0 0.0
308 1 0 5821.0 3086.0 0.0
309 1 0 7131.0 3081.0 0.0
310 1 0 7909.0 3080.0 0.0
311 1 0 920.0 3065.0 0.0
312 1 0 6468.0 3050.0 0.0
313 1 0 5677.0 3049.0 0.0
314 1 0 218.0 3031.0 0.0
315 1 0 6881.0 3029.0 0.0
316 1 0 5650.0 3023.0 0.0
317 1 0 197.0 3021.0 0.0
318 1 0 5531.0 3011.0 0.0
319 1 0 6387.0 3008.0 0.0
320 1 0 4458.0 3007.0 0.0
321 1 0 6190.0 2985.0 0.0
322 1 0 7055.0 2981.0 0.0
323 1 0 7238.0 2957.0 0.0
324 1 0 5930.0 2948.0 0.0
325 1 0 7543.0 2929.0 0.0
326 1 0 5291.0 2929.0 0.0
327 1 0 4196.0 2929.0 0.0
328 1 0 6617.0 2928.0 0.0
329 1 0 4831.0 2917.0 0.0
330 1 0 2835.0 2912.0 0.0
331 1 0 174.0 2901.0 0.0
332 1 0 5350.0 2867.0 0.0
333 1 0 7346.0 2858.0 0.0
334 1 0 6044.0 2848.0 0.0
335 1 0 4898.0 2840.0 0.0
336 1 0 3307.0 2833.0 0.0
337 1 0 1918.0 2832.0 0.0
338 1 0 7125.0 2823.0 0.0
339 1 0 6422.0 2820.0 0.0
340 1 0 5881.0 2817.0 0.0
341 1 0 141.0 2814.0 0.0
342 1 0 7851.0 2809.0 0.0
343 1 0 4929.0 2803.0 0.0
344 1 0 5963.0 2789.0 0.0
345 1 0 5470.0 2774.0 0.0
346 1 0 7458.0 2741.0 0.0
347 1 0 1263.0 2734.0 0.0
348 1 0 6766.0 2732.0 0.0
349 1 0 4763.0 2720.0 0.0
350 1 0 3461.0 2718.0 0.0
351 1 0 7309.0 2717.0 0.0
352 1 0 6848.0 2712.0 0.0
353 1 0 178.0 2702.0 0.0
354 1 0 1882.0 2684.0 0.0
355 1 0 4584.0 2643.0 0.0
356 1 0 3174.0 2627.0 0.0
357 1 0 7049.0 2570.0 0.0
358 1 0 7753.0 2564.0 0.0
359 1 0 6597.0 2563.0 0.0
360 1 0 4476.0 2555.0 0.0
361 1 0 1575.0 2555.0 0.0
362 1 0 7304.0 2550.0 0.0
363 1 0 10.0 2537.0 0.0
364 1 0 6800.0 2532.0 0.0
365 1 0 5296.0 2520.0 0.0
366 1 0 7104.0 2510.0 0.0
367 1 0 6547.0 2506.0 0.0
368 1 0 7267.0 2466.0 0.0
369 1 0 3189.0 2411.0 0.0
370 1 0 5117.0 2409.0 0.0
371 1 0 4973.0 2406.0 0.0
372 1 0 4488.0 2378.0 0.0
373 1 0 7351.0 2376.0 0.0
374 1 0 6007.0 2359.0 0.0
375 1 0 4612.0 2341.0 0.0
376 1 0 7015.0 2333.0 0.0
377 1 0 3233.0 2329.0 0.0
378 1 0 240.0 2327.0 0.0
379 1 0 6686.0 2312.0 0.0
380 1 0 6307.0 2295.0 0.0
381 1 0 7448.0 2291.0 0.0
382 1 0 7087.0 2274.0 0.0
383 1 0 2067.0 2254.0 0.0
384 1 0 5260.0 2230.0 0.0
385 1 0 4174.0 2190.0 0.0
386 1 0 36.0 2185.0 0.0
387 1 0 7856.0 2181.0 0.0
388 1 0 7315.0 2181.0 0.0
389 1 0 3319.0 2151.0 0.0
390 1 0 2126.0 2150.0 0.0
391 1 0 7418.0 2139.0 0.0
392 1 0 6885.0 2138.0 0.0
393 1 0 4959.0 2123.0 0.0
394 1 0 4996.0 2115.0 0.0
395 1 0 5681.0 2109.0 0.0
396 1 0 5277.0 2078.0 0.0
397 1 0 7643.0 2048.0 0.0
398 1 0 3390.0 2043.0 0.0
399 1 0 8080.0 2039.0 0.0
400 1 0 6139.0 2032.0 0.0
401 1 0 2694.0 2026.0 0.0
402 1 0 7152.0 2000.0 0.0
403 1 0 7822.0 1992.0 0.0
404 1 0 7416.0 1953.0 0.0
405 1 0 7352.0 1952.0 0.0
406 1 0 354.0 1950.0 0.0
407 1 0 6493.0 1931.0 0.0
408 1 0 7905.0 1921.0 0.0
409 1 0 8229.0 1905.0 0.0
410 1 0 6803.0 1886.0 0.0
411 1 0 4012.0 1886.0 0.0
412 1 0 4759.0 1883.0 0.0
413 1 0 8101.0 1876.0 0.0
414 1 0 7989.0 1876.0 0.0
415 1 0 8063.0 1860.0 0.0
416 1 0 8080.0 1835.0 0.0
417 1 0 7004.0 1805.0 0.0
418 1 0 6252.0 1795.0 0.0
419 1 0 6826.0 1774.0 0.0
420 1 0 7218.0 1773.0 0.0
421 1 0 464.0 1773.0 0.0
422 1 0 809.0 1766.0 0.0
423 1 0 7240.0 1762.0 0.0
424 1 0 7046.0 1757.0 0.0
425 1 0 8098.0 1746.0 0.0
426 1 0 7314.0 1739.0 0.0
427 1 0 7035.0 1733.0 0.0
428 1 0 5506.0 1719.0 0.0
429 1 0 8184.0 1685.0 0.0
430 1 0 6932.0 1683.0 0.0
431 1 0 5914.0 1682.0 0.0
432 1 0 2908.0 1681.0 0.0
433 1 0 6496.0 1678.0 0.0
434 1 0 8525.0 1664.0 0.0
435 1 0 6765.0 1663.0 0.0
436 1 0 7985.0 1657.0 0.0
437 1 0 6854.0 1640.0 0.0
438 1 0 7926.0 1627.0 0.0
439 1 0 7973.0 1606.0 0.0
440 1 0 5060.0 1577.0 0.0
441 1 0 4056.0 1564.0 0.0
442 1 0 5637.0 1558.0 0.0
443 1 0 2011.0 1558.0 0.0
444 1 0 8038.0 1535.0 0.0
445 1 0 6651.0 1534.0 0.0
446 1 0 552.0 1526.0 0.0
447 1 0 6621.0 1513.0 0.0
448 1 0 8594.0 1510.0 0.0
449 1 0 4719.0 1504.0 0.0
450 1 0 5472.0 1482.0 0.0
451 1 0 8605.0 1479.0 0.0
452 1 0 345.0 1476.0 0.0
453 1 0 8228.0 1471.0 0.0
454 1 0 5005.0 1458.0 0.0
455 1 0 5114.0 1430.0 0.0
456 1 0 5964.0 1421.0 0.0
457 1 0 602.0 1395.0 0.0
458 1 0 5098.0 1394.0 0.0
459 1 0 5068.0 1390.0 0.0
460 1 0 8292.0 1383.0 0.0
461 1 0 6258.0 1354.0 0.0
462 1 0 5010.0 1351.0 0.0
463 1 0 6494.0 1347.0 0.0
464 1 0 437.0 1344.0 0.0
465 1 0 413.0 1338.0 0.0
466 1 0 659.0 1331.0 0.0
467 1 0 5840.0 1325.0 0.0
468 1 0 6378.0 1314.0 0.0
469 1 0 6379.0 1302.0 0.0
470 1 0 6359.0 1298.0 0.0
471 1 0 3245.0 1281.0 0.0
472 1 0 450.0 1274.0 0.0
473 1 0 478.0 1256.0 0.0
474 1 0 5571.0 1255.0 0.0
475 1 0 489.0 1254.0 0.0
476 1 0 513.0 1247.0 0.0
477 1 0 6136.0 1243.0 0.0
478 1 0 4170.0 1232.0 0.0
479 1 0 1721.0 1165.0 0.0
480 1 0 893.0 1161.0 0.0
481 1 0 5930.0 1151.0 0.0
482 1 0 4619.0 1132.0 0.0
483 1 0 4125.0 1125.0 0.0
484 1 0 5139.0 1124.0 0.0
485 1 0 572.0 1108.0 0.0
486 1 0 4500.0 1093.0 0.0
487 1 0 2372.0 1084.0 0.0
488 1 0 993.0 1084.0 0.0
489 1 0 527.0 1077.0 0.0
490 1 0 5788.0 1053.0 0.0
491 1 0 3719.0 1043.0 0.0
492 1 0 4805.0 1033.0 0.0
493 1 0 5140.0 1018.0 0.0
494 1 0 5344.0 1003.0 0.0
495 1 0 5532.0 998.0 0.0
496 1 0 5069.0 998.0 0.0
497 1 0 1595.0 942.0 0.0
498 1 0 5666.0 914.0 0.0
499 1 0 2260.0 913.0 0.0
500 1 0 4244.0 896.0 0.0
501 1 0 5596.0 892.0 0.0
502 1 0 4569.0 886.0 0.0
503 1 0 1072.0 883.0 0.0
504 1 0 3499.0 863.0 0.0
505 1 0 5136.0 825.0 0.0
506 1 0 783.0 825.0 0.0
507 1 0 834.0 757.0 0.0
508 1 0 1406.0 750.0 0.0
509 1 0 3390.0 698.0 0.0
510 1 0 2384.0 695.0 0.0
511 1 0 982.0 659.0 0.0
512 1 0 1422.0 658.0 0.0
513 1 0 1361.0 637.0 0.0
514 1 0 1926.0 636.0 0.0
515 1 0 1213.0 633.0 0.0
516 1 0 1415.0 628.0 0.0
517 1 0 1082.0 625.0 0.0
518 1 0 1254.0 617.0 0.0
519 1 0 5070.0 605.0 0.0
520 1 0 1212.0 603.0 0.0
521 1 0 1249.0 600.0 0.0
522 1 0 3477.0 599.0 0.0
523 1 0 1322.0 580.0 0.0
524 1 0 1253.0 580.0 0.0
525 1 0 1276.0 559.0 0.0
526 1 0 2647.0 485.0 0.0
527 1 0 1443.0 459.0 0.0
528 1 0 1961.0 445.0 0.0
529 1 0 1790.0 429.0 0.0
530 1 0 1503.0 362.0 0.0
531 1 0 5393.0 355.0 0.0
532 1 0 5469.0 10.0 0.0
